dates = {'2022-05-23','2022-05-24','2022-05-25','2022-05-26','2022-05-27','2022-05-28','2022-05-29','2022-05-30','2022-05-31','2022-06-01'};

daysOfWeek = [Monday,Tuesday,Wednesday,Thursday,Friday,Saturday,Sunday,Monday,Tuesday,Wednesday];

% For this week, how many people will be here.
numPeople = [25,25,25,25,25,25,25,25,25,25];

% Physical workers need 50 to 100 % more nutrients per day.
numPhysicalWorkers = [13.0,13.0,13.0,13.0,13.0,13.0,13.0,13.0,13.0,13.0];

% Males need +25% more nutrients per day.
numMen = [19,19,19,19,19,19,19,19,19,19];

% Num people who do not eat categories. contains = {none, meat, milk, gluten, egg, nut, seed, sugars}
numRefusals = [| 0,0,1,1,1,0,0,1 | 0,0,1,1,1,0,0,1 | 0,0,1,1,1,0,0,1 | 0,0,1,1,1,0,0,1 | 0,0,1,1,1,0,0,1 | 0,0,1,1,1,0,0,1 | 0,0,1,1,1,0,0,1 | 0,0,1,1,1,0,0,1 | 0,0,1,1,1,0,0,1 | 0,0,1,1,1,0,0,1 |];

